ACTORES={Julia, Juan, Carlos, Ana, Gabriel, Narciso};
Escenas= [|  1, 1, 1, 1, 0, 1, 0, 0, 10|
  1, 1, 1, 0, 0, 0, 1, 1, 4|
  0, 1, 1, 0, 1, 0, 1, 1, 2|
  0, 0, 0, 0, 0, 0, 0, 1, 7|
  0, 1, 0, 0, 1, 0, 1, 1, 3|
  0, 0, 0, 1, 0, 1, 1, 1, 20|];
Duracion = [2, 1, 1, 1, 1, 3, 1, 1];
